NAME : portcgen-23-21
COMMENT : portcgen N=23, seed=21
TYPE : TSP
DIMENSION : 23
EDGE_WEIGHT_TYPE : EUC_2D
NODE_COORD_SECTION
1 -140915 102957
2 -140770 199168
3 32090 190627
4 10517 140185
5 60906 -71780
6 -234020 314162
7 139338 -50177
8 -136935 141805
9 -54260 46810
10 145455 263899
11 147838 -440043
12 86924 -65004
13 185031 -517594
14 253890 -143959
15 559605 280387
16 331605 -113194
17 312145 19702
18 -325142 -74292
19 82136 -2260
20 -244809 84394
21 -78278 -67354
22 315388 225426
23 -93416 -346404
